Route #1: 1 10 46 11 42 28 31 58 29 52 37 1 
Route #2: 1 1 16 54 43 2 12 38 40 62 1 
Route #3: 1 32 17 5 27 19 22 26 1 
Route #4: 1 39 20 35 6 51 3 15 13 68 1 
Route #5: 1 48 56 8 66 30 23 7 1 
Route #6: 1 36 59 41 45 49 33 53 24 1 
Route #7: 1 50 63 25 14 34 55 67 64 1 
Route #8: 1 57 47 4 65 21 61 18 1 
Route #9: 1 44 9 60 1 

Cost 2044.8
Time 0.6664


 * Another infos *

 Iterations: 69 Time: 0.6664 sec - 0.0111 min - 0.0002 horas
0.0000 h 0.0111 min
Problem dimension: 69
